Route #1: 53 58 13 87 2 57 15 43 42 100 91 14 38 44 86 16 61 85 98 37 92 97 95 94
Route #2: 70 30 20 66 32 90 63 64 11 19 46 45 17 84 5 59 99 60 83 8 82 48 7 62 10 88 31
Route #3: 26 12 80 4 39 67 23 56 75 22 41 74 72 73 21 40 93 96 6 89 18 47 36 49 52
Route #4: 27 69 1 50 33 81 51 9 71 65 35 34 78 29 24 25 55 54 68 79 3 77 76 28
Cost 808
